[[84, 85, 76, 75, 77, 68, 67, 66, 74, 64, 65, 56, 59, 58, 49, 57, 55, 46, 47, 48, 39, 40, 38, 37, 29, 31, 30, 28, 19, 20, 21, 22], [13, 12, 11, 10, 2, 3, 4, 14, 5, 6, 7, 8, 9, 18, 17, 16, 15, 23, 24, 25, 26, 27, 35, 36, 44, 34, 43, 33, 32, 41, 42, 50], [60, 51, 52, 53, 45, 54, 63, 61, 62, 72, 81, 80, 71, 70, 69, 78, 79, 88, 89, 90, 99, 98, 97, 96, 87, 86, 95, 94, 93, 92, 91, 83, 82, 73]]